c Generated map
c Size: 9 * 9, weights in range: 1 to 10, walls: False, with ratio 0.0
c dim 1 of 7
c
p sp 81 144
c graph contains 81 nodes and 144 arcs
c
a 1 10 6
a 10 1 6
a 1 2 10
a 2 1 10
a 2 11 1
a 11 2 1
a 2 3 2
a 3 2 2
a 3 12 10
a 12 3 10
a 3 4 10
a 4 3 10
a 4 13 5
a 13 4 5
a 4 5 5
a 5 4 5
a 5 14 7
a 14 5 7
a 5 6 10
a 6 5 10
a 6 15 9
a 15 6 9
a 6 7 6
a 7 6 6
a 7 16 2
a 16 7 2
a 7 8 8
a 8 7 8
a 8 17 1
a 17 8 1
a 8 9 2
a 9 8 2
a 9 18 4
a 18 9 4
a 10 19 2
a 19 10 2
a 10 11 10
a 11 10 10
a 11 20 5
a 20 11 5
a 11 12 9
a 12 11 9
a 12 21 6
a 21 12 6
a 12 13 8
a 13 12 8
a 13 22 6
a 22 13 6
a 13 14 5
a 14 13 5
a 14 23 8
a 23 14 8
a 14 15 1
a 15 14 1
a 15 24 7
a 24 15 7
a 15 16 2
a 16 15 2
a 16 25 5
a 25 16 5
a 16 17 6
a 17 16 6
a 17 26 4
a 26 17 4
a 17 18 7
a 18 17 7
a 18 27 8
a 27 18 8
a 19 28 2
a 28 19 2
a 19 20 6
a 20 19 6
a 20 29 2
a 29 20 2
a 20 21 4
a 21 20 4
a 21 30 10
a 30 21 10
a 21 22 1
a 22 21 1
a 22 31 6
a 31 22 6
a 22 23 7
a 23 22 7
a 23 32 9
a 32 23 9
a 23 24 6
a 24 23 6
a 24 33 9
a 33 24 9
a 24 25 2
a 25 24 2
a 25 34 7
a 34 25 7
a 25 26 10
a 26 25 10
a 26 35 9
a 35 26 9
a 26 27 1
a 27 26 1
a 27 36 5
a 36 27 5
a 28 37 9
a 37 28 9
a 28 29 2
a 29 28 2
a 29 38 9
a 38 29 9
a 29 30 8
a 30 29 8
a 30 39 6
a 39 30 6
a 30 31 10
a 31 30 10
a 31 40 3
a 40 31 3
a 31 32 1
a 32 31 1
a 32 41 2
a 41 32 2
a 32 33 2
a 33 32 2
a 33 42 4
a 42 33 4
a 33 34 10
a 34 33 10
a 34 43 8
a 43 34 8
a 34 35 10
a 35 34 10
a 35 44 9
a 44 35 9
a 35 36 10
a 36 35 10
a 36 45 9
a 45 36 9
a 37 46 4
a 46 37 4
a 37 38 9
a 38 37 9
a 38 47 6
a 47 38 6
a 38 39 2
a 39 38 2
a 39 48 8
a 48 39 8
a 39 40 1
a 40 39 1
a 40 49 4
a 49 40 4
a 40 41 5
a 41 40 5
a 41 50 3
a 50 41 3
a 41 42 6
a 42 41 6
a 42 51 8
a 51 42 8
a 42 43 6
a 43 42 6
a 43 52 6
a 52 43 6
a 43 44 6
a 44 43 6
a 44 53 10
a 53 44 10
a 44 45 10
a 45 44 10
a 45 54 3
a 54 45 3
a 46 55 7
a 55 46 7
a 46 47 10
a 47 46 10
a 47 56 3
a 56 47 3
a 47 48 7
a 48 47 7
a 48 57 4
a 57 48 4
a 48 49 2
a 49 48 2
a 49 58 9
a 58 49 9
a 49 50 2
a 50 49 2
a 50 59 10
a 59 50 10
a 50 51 4
a 51 50 4
a 51 60 9
a 60 51 9
a 51 52 10
a 52 51 10
a 52 61 2
a 61 52 2
a 52 53 5
a 53 52 5
a 53 62 7
a 62 53 7
a 53 54 8
a 54 53 8
a 54 63 8
a 63 54 8
a 55 64 4
a 64 55 4
a 55 56 1
a 56 55 1
a 56 65 8
a 65 56 8
a 56 57 5
a 57 56 5
a 57 66 7
a 66 57 7
a 57 58 8
a 58 57 8
a 58 67 9
a 67 58 9
a 58 59 4
a 59 58 4
a 59 68 4
a 68 59 4
a 59 60 9
a 60 59 9
a 60 69 1
a 69 60 1
a 60 61 9
a 61 60 9
a 61 70 1
a 70 61 1
a 61 62 5
a 62 61 5
a 62 71 6
a 71 62 6
a 62 63 8
a 63 62 8
a 63 72 7
a 72 63 7
a 64 73 8
a 73 64 8
a 64 65 9
a 65 64 9
a 65 74 2
a 74 65 2
a 65 66 1
a 66 65 1
a 66 75 10
a 75 66 10
a 66 67 2
a 67 66 2
a 67 76 3
a 76 67 3
a 67 68 2
a 68 67 2
a 68 77 5
a 77 68 5
a 68 69 3
a 69 68 3
a 69 78 8
a 78 69 8
a 69 70 9
a 70 69 9
a 70 79 7
a 79 70 7
a 70 71 5
a 71 70 5
a 71 80 5
a 80 71 5
a 71 72 3
a 72 71 3
a 72 81 3
a 81 72 3
a 73 74 2
a 74 73 2
a 74 75 6
a 75 74 6
a 75 76 5
a 76 75 5
a 76 77 7
a 77 76 7
a 77 78 2
a 78 77 2
a 78 79 3
a 79 78 3
a 79 80 4
a 80 79 4
a 80 81 4
a 81 80 4
